HUN,8,6,512
1,30,4,24,0,23,5,22,3,30,2,26
0,23,1,30,4,24,2,25,5,24,3,26
4,28,1,28,5,21,2,24,3,22,0,29
2,29,4,23,0,24,5,22,3,22,1,22
2,29,0,25,5,25,3,28,4,21,1,21
2,29,5,29,4,21,0,27,1,23,3,29
0,21,2,26,3,22,4,23,5,24,1,30
2,22,0,25,1,24,4,28,3,27,5,21
